problems/csplib-prob001/CarSequencing-models/noch/O2/lingeling/model-random07-solution000001.eprime-solution
language ESSENCE' 1.0

letting car_Function1D be
        [5, 8, 9, 9, 8, 14, 5, 9, 8, 9, 14, 14, 9, 8, 5, 9, 8, 14, 9, 8, 5, 9, 14, 8, 14, 9, 9, 5, 14, 8, 17, 9, 5, 4,
         9, 14, 8, 5, 9, 8, 14, 9, 12, 5, 14, 1, 9, 3, 8, 5, 9, 14, 8, 17, 5, 3, 9, 8, 9, 5, 8, 9, 3, 14, 13, 15, 9, 14,
         14, 8, 9, 14, 14, 5, 9, 14, 8, 9, 5, 8, 14, 9, 8, 5, 9, 14, 8, 9, 5, 14, 8, 9, 14, 5, 9, 8, 9, 14, 5, 9, 14, 8,
         14, 14, 9, 1, 5, 14, 8, 14, 14, 5, 8, 14, 14, 8, 16, 14, 9, 8, 3, 5, 8, 17, 9, 14, 5, 8, 14, 9, 6, 10, 17, 14,
         14, 9, 2, 9, 8, 14, 9, 5, 9, 8, 14, 9, 7, 9, 14, 14, 8, 5, 9, 8, 9, 14, 8, 14, 9, 11, 14, 2, 14, 9, 14, 12, 5,
         9, 14, 8, 9, 5, 8, 14, 14, 9, 9, 8, 5, 14, 11, 9, 14, 5, 8, 9, 14, 14, 5, 9, 8, 14, 9, 14, 5, 12, 9, 9, 8,
         5; int(1..200)]
